//if not lauch with main.mod, keep this line. Else erase it
opti = 564.567;

V = [
	[0.0, 16, 121, 210, 64, 100],
	[16, 0.0, 225, 220, 36, 196],
	[121, 225, 0.0, 180, 225, 144],
	[210, 220, 180, 0.0, 92, 515],
	[64, 36, 225, 92, 0.0, 324],
	[100, 196, 144, 515, 324, 0.0]
];
